c Generated map
c Size: 9 * 9, weights in range: 1 to 10, walls: True, with ratio 0.1
c dim 4 of 7
c
p sp 81 117
c graph contains 81 nodes and 117 arcs
c
a 1 2 6
a 2 1 6
a 2 11 10
a 11 2 10
a 2 3 9
a 3 2 9
a 3 12 1
a 12 3 1
a 3 4 9
a 4 3 9
a 4 13 3
a 13 4 3
a 4 5 8
a 5 4 8
a 5 6 2
a 6 5 2
a 6 15 8
a 15 6 8
a 6 7 10
a 7 6 10
a 7 8 6
a 8 7 6
a 8 17 3
a 17 8 3
a 8 9 8
a 9 8 8
a 9 18 1
a 18 9 1
a 11 20 9
a 20 11 9
a 11 12 7
a 12 11 7
a 12 21 8
a 21 12 8
a 12 13 5
a 13 12 5
a 13 22 8
a 22 13 8
a 15 24 2
a 24 15 2
a 17 26 7
a 26 17 7
a 17 18 1
a 18 17 1
a 18 27 2
a 27 18 2
a 19 28 2
a 28 19 2
a 19 20 1
a 20 19 1
a 20 29 10
a 29 20 10
a 20 21 8
a 21 20 8
a 21 30 7
a 30 21 7
a 21 22 5
a 22 21 5
a 22 31 3
a 31 22 3
a 24 33 9
a 33 24 9
a 24 25 8
a 25 24 8
a 25 34 7
a 34 25 7
a 25 26 9
a 26 25 9
a 26 35 9
a 35 26 9
a 26 27 8
a 27 26 8
a 27 36 8
a 36 27 8
a 28 37 7
a 37 28 7
a 28 29 9
a 29 28 9
a 29 38 5
a 38 29 5
a 29 30 8
a 30 29 8
a 30 39 6
a 39 30 6
a 30 31 5
a 31 30 5
a 31 40 2
a 40 31 2
a 31 32 1
a 32 31 1
a 32 41 1
a 41 32 1
a 32 33 10
a 33 32 10
a 33 42 1
a 42 33 1
a 33 34 4
a 34 33 4
a 34 35 7
a 35 34 7
a 35 44 9
a 44 35 9
a 35 36 3
a 36 35 3
a 36 45 1
a 45 36 1
a 37 46 2
a 46 37 2
a 37 38 1
a 38 37 1
a 38 47 5
a 47 38 5
a 38 39 6
a 39 38 6
a 39 48 3
a 48 39 3
a 39 40 4
a 40 39 4
a 40 49 7
a 49 40 7
a 40 41 4
a 41 40 4
a 41 50 9
a 50 41 9
a 41 42 1
a 42 41 1
a 42 51 4
a 51 42 4
a 44 53 7
a 53 44 7
a 44 45 1
a 45 44 1
a 45 54 1
a 54 45 1
a 46 55 5
a 55 46 5
a 46 47 9
a 47 46 9
a 47 56 1
a 56 47 1
a 47 48 10
a 48 47 10
a 48 57 2
a 57 48 2
a 48 49 9
a 49 48 9
a 49 58 4
a 58 49 4
a 49 50 3
a 50 49 3
a 50 59 5
a 59 50 5
a 50 51 5
a 51 50 5
a 51 60 2
a 60 51 2
a 51 52 9
a 52 51 9
a 52 61 8
a 61 52 8
a 52 53 4
a 53 52 4
a 53 62 9
a 62 53 9
a 53 54 6
a 54 53 6
a 54 63 9
a 63 54 9
a 55 64 6
a 64 55 6
a 55 56 6
a 56 55 6
a 56 65 6
a 65 56 6
a 56 57 8
a 57 56 8
a 57 58 1
a 58 57 1
a 58 67 4
a 67 58 4
a 58 59 2
a 59 58 2
a 59 68 3
a 68 59 3
a 59 60 6
a 60 59 6
a 60 69 2
a 69 60 2
a 60 61 7
a 61 60 7
a 61 70 9
a 70 61 9
a 61 62 7
a 62 61 7
a 62 71 1
a 71 62 1
a 62 63 1
a 63 62 1
a 63 72 1
a 72 63 1
a 64 73 9
a 73 64 9
a 64 65 1
a 65 64 1
a 65 74 7
a 74 65 7
a 67 68 5
a 68 67 5
a 68 69 8
a 69 68 8
a 69 78 3
a 78 69 3
a 69 70 1
a 70 69 1
a 70 79 9
a 79 70 9
a 70 71 9
a 71 70 9
a 71 80 6
a 80 71 6
a 71 72 1
a 72 71 1
a 72 81 8
a 81 72 8
a 73 74 9
a 74 73 9
a 74 75 9
a 75 74 9
a 78 79 2
a 79 78 2
a 79 80 3
a 80 79 3
a 80 81 2
a 81 80 2
